15
1 0 9
2 1 6
3 1 3
3 2 7
4 1 6
5 1 1
5 2 7
5 4 3
6 1 4
6 2 3
6 3 2
6 4 6
7 0 3
7 2 4
7 4 9
7 6 4
8 0 8
8 2 8
8 5 8
8 7 8
9 2 2
9 5 4
10 0 4
10 1 4
10 2 4
10 4 2
10 5 4
10 6 6
10 8 5
11 0 4
11 1 4
11 4 5
11 6 2
11 8 1
11 9 2
12 1 5
12 2 6
12 4 2
12 6 5
12 7 1
13 0 6
13 2 8
13 6 4
13 9 9
13 10 1
13 12 4
14 0 2
14 2 7
14 4 5
14 6 6
14 7 3
14 8 5
14 11 4
14 13 7
